66 17 69 81 75 18 90 44 48 20 15 19 87 91 3 1 98 13 86 99 97 96 95 94 92 93 89 88 85 84 83 82 80 79 61 9 25 0 38 68 62 6 78 57 51 34 31 65 71 36 23 55 58 49 42 67 60 76 70 10 16 43 73 54 2 63 52 22 7 50 64 39 53 24 4 72 12 32 77 37 56 30 27 41 59 11 5 28 40 35 29 46 47 74 14 33 21 26 8 45 

